29998.1 0
0 86 68 49 51 97 41 4 75 36 58 59 69 74 67 34 8 89 32 55 52 54 2 9 93 53 42 20 92 26 3 40 12 65 45 35 14 63 17 82 94 48 80 27 29 25 21 6 56 23 10 95 1 57 15 87 83 30 99 50 76 73 37 28 62 90 33 64 22 88 13 31 96 70 5 44 77 61 11 84 79 18 72 91 71 7 78 85 16 24 38 39 66 43 81 46 47 98 19 60 
